
  32    1
  10

   0   0  10 2 3 4 5 6 8 10 12 20 21 
   5   1   6 30 29 16 14 13 7 
   8   8   9 30 29 23 18 17 16 15 14 13 
   3   5   5 31 29 27 26 9 
   6   6   8 28 26 25 23 19 17 16 13 
   9   5   6 26 24 23 18 15 13 
   6   6   5 28 27 24 15 11 
   3   9   6 28 27 24 23 16 15 
  10   4   5 28 23 22 17 15 
   8   4   4 29 28 16 13 
   2   7   3 26 23 22 
   1   7   3 26 24 22 
   3   4   2 27 22 
   8   9   2 26 22 
   9   5   1 25 
   7   7   1 22 
   7   3   1 24 
   2   9   1 25 
   3  10   1 22 
  10   4   1 23 
   6   4   1 22 
   6  10   1 32
   6   9   1 32
  10   8   1 32
   1   2   1 32
   7  10   1 32
  10   9   1 32
   1   3   1 32
  10   7   1 32
   6   2   1 32
   5   3   1 32
   0   0   0 
